
Gurobi 10.0.0 (win64, gurobi_cl) logging started Fri Mar 31 14:23:11 2023

Set parameter LogFile to value "gurobi.log"
Using license file C:\Users\GEO\gurobi.lic

Gurobi 10.0.0 (win64, gurobi_cl) logging started Fri Mar 31 15:15:09 2023

Set parameter LogFile to value "gurobi.log"
Using license file C:\Users\GEO\gurobi.lic

Gurobi 10.0.0 (win64, gurobi_cl) logging started Fri Mar 31 15:19:40 2023

Set parameter LogFile to value "gurobi.log"
Using license file C:\Users\GEO\gurobi.lic

Gurobi 10.0.0 (win64, gurobi_cl) logging started Fri Mar 31 15:37:16 2023

Set parameter LogFile to value "gurobi.log"
Using license file C:\Users\GEO\gurobi.lic

Gurobi 10.0.0 (win64, gurobi_cl) logging started Fri Mar 31 15:42:39 2023

Set parameter LogFile to value "gurobi.log"
Using license file C:\Users\GEO\gurobi.lic

Gurobi 10.0.0 (win64, gurobi_cl) logging started Fri Mar 31 15:43:10 2023

Set parameter LogFile to value "gurobi.log"
Using license file C:\Users\GEO\gurobi.lic

Gurobi 10.0.0 (win64, gurobi_cl) logging started Fri Mar 31 15:45:14 2023

Set parameter LogFile to value "gurobi.log"
Using license file C:\Users\GEO\gurobi.lic

Gurobi 10.0.0 (win64, gurobi_cl) logging started Fri Mar 31 15:58:39 2023

Set parameter LogFile to value "gurobi.log"
Using license file C:\Users\GEO\gurobi.lic
